5
1128.00 1065.60 505.20  826.80
838.80 808.80 704.40  244.80
865.20 490.80 813.60  1141.20
632.40 1008.00 679.20  540.00
1051.20 570.00 1087.20  708.00
15
394 410 390  251 68
605 609 680  176 56
297 50 704  260 182
683 610 422  129 21
15 458 601  250 14
165 637 351  54 49
685 536 704  158 231
528 798 352  290 9
505 778 72  143 79
564 735 386  151 225
668 738 407  204 200
762 530 195  73 82
137 539 707  81 17
350 717 100  53 238
336 323 375  135 259
